log $logfile append

kim init DUNN_WenTadmor_2019v2_C__MO_956135237832_000 metal

dimension	3
boundary	p p p

neighbor	0.3 bin
neigh_modify	delay 5

atom_style full
newton on off

variable dump_rate equal 125 # the rate in timestep that atoms are dumped
variable run_steps_eq equal 20000 # time steps for the equilibration phase
variable run_steps_ex equal 200000 # time steps for the expansion phase
variable timestep equal 0.0001 #timestep in picoseconds  

# create geometry
region		box block $x_min $x_max $y_min $y_max $z_min $z_max
create_box	1 box

# create the lattices metal unit for length is angstrom
# this is a multiple of the diamond lattice constant to avoid edge efects
lattice		diamond $grid_constant
region		diamond block $x_min $x_max $y_min $y_max $z_min $z_max units box
create_atoms    1 region diamond

mass		1 12.0

kim interactions C

# define groups
# group	diamond region diamond

read_dump $old_dump $last_step x y z vx vz vy fx fz fy add yes

thermo_modify lost ignore flush yes
dump    lmp_dump_vel all custom ${dump_rate} $new_dump id type x y z vx vz vy fx fz fy