log $logfile

units metal
dimension	3
boundary	p p p

neighbor	0.3 bin
neigh_modify	delay 5

atom_style full
newton on off

# create geometry
region		box block $x_min $x_max $y_min $y_max $z_min $z_max
create_box	1 box
#fix wall_lo all wall/lj126 xlo $wall_min 5.0 1.0 1.22462 xhi $wall_max 5.0 1.0 1.22462 ylo $wall_min 5.0 1.0 1.22462 yhi $wall_max 5.0 1.0 1.22462 zlo $wall_min 5.0 1.0 1.22462 zhi $wall_max 5.0 1.0 1.22462 units box

# create the lattices metal unit for length is angstrom
# this is a multiple of the diamond lattice constant to avoid edge efects
lattice		diamond $grid_constant
region		diamond block $x_min $x_max $y_min $y_max $z_min $z_max units box
create_atoms    1 region diamond

mass		1 12.0

pair_style edip
pair_coeff * * /home/bh326/POTENTIALS/C.edip C

# define groups
group	diamond region diamond


# initial velocities

compute	  	diamond_temp diamond temp
velocity	diamond create $t_init $seed temp diamond_temp

dump    lmp_dump_vel all custom 125 $dumpfile id type x y z vx vz vy fx fz fy 
thermo		50

# Equilibrate the diamond at a certain temperature
fix 1 all nvt temp $temperature $temperature $(dt*100.0)

timestep	0.0001 #when using metal units [ps]
#timestep	0.1 #when using real units [fs]

run		20000 # equilibrate for 2ns 

unfix 1

# Create a large box with fixed bounadary conditions 
change_box all boundary f f f x final -200 200 y final -200 200 z final -200 200
# ignore lost atoms along the way
thermo_modify lost ignore flush yes

fix 2 all nve

run 200000 # expand for 20ns