log $logfile

kim init DUNN_WenTadmor_2019v2_C__MO_956135237832_000 units

metal metal
dimension	3
boundary	p p p

neighbor	0.3 bin
neigh_modify	delay 5

atom_style full
newton on off

variable dump_rate equal 125 # the rate in timestep that atoms are dumped
variable run_steps_eq equal 20000 # time steps for the equilibration phase
variable run_steps_ex equal 200000 # time steps for the expansion phase
variable timestep equal 0.0001 #timestep in picoseconds  

# create geometry
region		box block $x_min $x_max $y_min $y_max $z_min $z_max
create_box	1 box

# create the lattices metal unit for length is angstrom
# this is a multiple of the diamond lattice constant to avoid edge efects
lattice		diamond $grid_constant
region		diamond block $x_min $x_max $y_min $y_max $z_min $z_max units box
create_atoms    1 region diamond

mass		1 12.0

kim interactions C

# define groups
group	diamond region diamond

# initial velocities

compute	  	diamond_temp diamond temp
velocity	diamond create $t_init $seed temp diamond_temp

dump    lmp_dump_vel all custom ${dump_rate} $dumpfile id type x y z vx vz vy fx fz fy 
thermo		50

# Equilibrate the diamond at a certain temperature
fix 1 all nvt temp $temperature $temperature $(dt*100.0)

timestep	${timestep} # 0.0001 #when using metal units [ps]

run		${run_steps_eq} # equilibration timestes
variable E_equil equal etotal # store the Energy of the equilibrated system as a variable

unfix 1

# Create a large box with fixed bounadary conditions 
change_box all boundary f f f x final -200 200 y final -200 200 z final -200 200
# ignore lost atoms along the way
thermo_modify lost ignore flush yes

fix 2 all nve

run ${run_steps_ex} # expand 
